b=1 type=0 x=39 y=10 r=3
b=2 type=0 x=36 y=10 r=3
b=3 type=0 x=33 y=10 r=3
b=4 type=0 x=25 y=10 r=3
b=5 type=0 x=22 y=10 r=3
b=6 type=0 x=19 y=10 r=3
b=7 type=0 x=16 y=10 r=3
b=8 type=0 x=13 y=10 r=3
b=9 type=0 x=10 y=10 r=3
b=10 type=0 x=30 y=9 r=3
b=11 type=0 x=39 y=7 r=3
b=12 type=0 x=36 y=7 r=3
b=13 type=0 x=33 y=7 r=3
b=14 type=0 x=27 y=7 r=3
b=15 type=0 x=24 y=7 r=3
b=16 type=0 x=21 y=7 r=3
b=17 type=0 x=18 y=7 r=3
b=18 type=0 x=15 y=7 r=3
b=19 type=0 x=12 y=7 r=3
b=20 type=0 x=30 y=6 r=3
b=21 type=0 x=40 y=4 r=3
b=22 type=0 x=37 y=4 r=3
b=23 type=0 x=34 y=4 r=3
b=24 type=0 x=27 y=4 r=3
b=25 type=0 x=24 y=4 r=3
b=26 type=0 x=21 y=4 r=3
b=27 type=0 x=18 y=4 r=3
b=28 type=0 x=11 y=4 r=3
b=29 type=0 x=4 y=4 r=3
b=30 type=0 x=1 y=4 r=3
b=31 type=0 x=31 y=3 r=3
b=32 type=0 x=41 y=1 r=3
b=33 type=0 x=38 y=1 r=3
b=34 type=0 x=35 y=1 r=3
b=35 type=0 x=28 y=1 r=3
b=36 type=0 x=25 y=1 r=3
b=37 type=0 x=22 y=1 r=3
b=38 type=0 x=7 y=1 r=3
b=39 type=0 x=4 y=1 r=3
b=40 type=0 x=1 y=1 r=3
----------
